c clasp version 2.1.1
c Reading from p32.cnf
c Solving...
s SATISFIABLE

c Models        : 1+    
c Time          : 1.076s (Solving: 0.28s 1st Model: 0.28s Unsat: 0.00s)
c CPU Time      : 1.060s
c Choices       : 13108
c Conflicts     : 1658
c Restarts      : 4      (Average: 414.50 Last: 186)

c Variables     : 224760 (Eliminated: 70486 Frozen:    0)
c Constraints   : 261888 (Binary: 64.4% Ternary: 34.4% Other:  1.2%)
c Lemmas        : 1658   (Binary:  1.1% Ternary:  1.9% Other: 97.0%)
c   Conflict    : 1658   (Average Length: 77.0) 
c   Loop        : 0      (Average Length: 0.0) 
c   Other       : 0      (Average Length: 0.0)
c   Deleted     : 0     
